          26
    
N      1.184074    -0.046015    -0.057657
C      2.151058    -1.177395    -0.234950
H      1.844167    -1.997517     0.409269
C      1.099400     0.360803     1.380450
H      0.880651    -0.526404     1.970559
H      2.054485     0.788186     1.681369
C      1.545105     1.092515    -0.989926
H      2.554105     1.396458    -0.711304
H      1.582094     0.656667    -1.987167
H      2.135828    -1.493368    -1.275619
C      0.611810     2.300269    -0.967713
H      0.547710     2.729120     0.034808
H      1.097257     3.058447    -1.591117
H      3.147518    -0.835337     0.039610
H      0.302364     1.087610     1.504165
C     -0.800490     2.075733    -1.488717
H     -1.333534     1.329320    -0.893418
H     -1.355574     3.017384    -1.423656
O     -0.730013     1.644616    -2.861670
H     -1.624168     1.438622    -3.157593
O     -1.292869    -1.467499    -0.757532
H     -1.201168    -2.227301    -1.349364
H      0.259208    -0.419803    -0.325327
C     -2.387820    -1.709156     0.091288
O     -2.592670    -0.803961     0.922679
O     -3.005956    -2.778718    -0.094465
