          26
    
N      1.128502    -0.098689    -0.093703
C      2.131420    -1.193851    -0.234890
H      1.812098    -2.039780     0.370875
C      0.986522     0.299513     1.334081
H      0.784624    -0.595015     1.920925
H      1.907759     0.769184     1.680880
C      1.503516     1.043427    -1.000083
H      2.519700     1.337086    -0.727878
H      1.532464     0.629524    -2.008109
H      2.182762    -1.492292    -1.280686
C      0.596981     2.272661    -0.958816
H      0.531878     2.674593     0.055130
H      1.102110     3.039697    -1.555656
H      3.108960    -0.845728     0.099740
H      0.154472     0.990837     1.440251
C     -0.813601     2.092794    -1.497926
H     -1.348474     1.312570    -0.952036
H     -1.364141     3.032682    -1.382634
O     -0.738898     1.742886    -2.894893
H     -1.624372     1.504539    -3.192277
O     -1.092017    -1.303653    -0.746522
H     -0.855041    -2.154136    -1.134740
H      0.165315    -0.553375    -0.407309
C     -2.819345    -1.720987     0.535803
O     -2.941611    -0.659918     1.022477
O     -3.009918    -2.850850     0.278378
