          35
    
N      1.854315    -0.213562    -0.013069
C      2.772388    -1.211758    -0.671181
H      3.798625    -0.879270    -0.513608
C      1.881253    -0.349712     1.492642
H      1.193758     0.400325     1.879683
H      1.457524    -1.331516     1.708681
C      2.112669     1.202264    -0.481193
H      2.693679     1.708964     0.286905
H      2.738824     1.140239    -1.368345
H      2.634857    -2.151545    -0.134775
C      0.857683     2.002118    -0.835338
H      1.203925     2.907421    -1.347299
H      0.259102     1.444632    -1.559998
C     -0.049646     2.432665     0.316437
H     -0.401933     1.552803     0.864039
C     -1.261653     3.215153    -0.179919
H     -1.882937     3.537493     0.660602
H     -0.948024     4.100549    -0.740982
H     -1.877044     2.589509    -0.832208
O      0.751555     3.240767     1.212333
H      0.207808     3.470754     1.975410
C      2.487856    -1.413340    -2.154118
H      3.185920    -2.160591    -2.538761
H      1.472844    -1.778509    -2.319478
H      2.629540    -0.500052    -2.735516
C      3.249689    -0.207004     2.146369
H      3.938605    -0.997016     1.843331
H      3.712885     0.759431     1.937346
H      3.114098    -0.280903     3.228016
O     -0.589949    -1.119252    -0.450430
H     -0.993734    -0.739728    -1.239598
H      0.835149    -0.517340    -0.274987
C     -1.848548    -2.858652     0.077587
O     -1.247888    -3.228291     1.014941
O     -2.663904    -2.789507    -0.763810
