          35
    
N      1.570943    -0.091416     0.255167
C      2.698229    -0.836416    -0.433188
H      3.622019    -0.351299    -0.116744
C      1.476512    -0.458592     1.724309
H      2.477821    -0.320942     2.133851
H      0.815210     0.271931     2.184825
C      1.726057     1.404647     0.080694
H      2.479411     1.720002     0.803417
H      2.120770     1.567913    -0.917669
H      2.694082    -1.850528    -0.041860
C      0.422413     2.175872     0.259750
H     -0.311848     1.851409    -0.483714
H     -0.006962     1.991105     1.246537
C      0.630636     3.683247     0.121295
H      1.410746     4.002709     0.823361
C     -0.646906     4.467086     0.399189
H     -0.979843     4.302353     1.427389
H     -0.475980     5.539291     0.268034
H     -1.446117     4.156250    -0.279698
O      1.103072     3.928751    -1.224993
H      1.266372     4.875308    -1.317100
C      2.564109    -0.866353    -1.947852
H      3.407940    -1.429930    -2.352114
H      1.645737    -1.370033    -2.255866
H      2.585647     0.128775    -2.394452
C      0.952524    -1.863828     1.978632
H     -0.041094    -2.002812     1.549357
H      1.615843    -2.639529     1.593531
H      0.875101    -2.001826     3.059400
O     -0.988750    -1.008253    -1.070727
H     -0.815055    -1.696636    -1.728120
H      0.686389    -0.374883    -0.196998
C     -2.184045    -1.346191    -0.412098
O     -2.524464    -0.534937     0.470333
O     -2.744659    -2.397785    -0.788991
