          35
    
N      1.980880    -0.297197     0.072682
C      2.804511    -1.087761    -0.866998
H      3.867297    -0.817530    -0.778308
C      2.181810    -0.723486     1.477634
H      1.485565    -0.143743     2.089667
H      1.865507    -1.769191     1.546862
C      2.146685     1.168643    -0.111767
H      2.401845     1.625255     0.846931
H      2.997670     1.359077    -0.774114
H      2.717031    -2.136471    -0.567146
C      0.909087     1.873914    -0.681908
H      1.201494     2.877384    -1.016335
H      0.555387     1.335947    -1.565164
C     -0.254533     2.025163     0.294983
H     -0.483791     1.053743     0.745204
C     -1.509964     2.575659    -0.373817
H     -2.311583     2.713658     0.357677
H     -1.303094     3.540206    -0.847818
H     -1.868494     1.882744    -1.139914
O      0.189393     2.915705     1.351955
H     -0.502709     2.949444     2.023176
C      2.377404    -0.946875    -2.327024
H      3.009767    -1.582818    -2.953056
H      1.338068    -1.252834    -2.470171
H      2.483956     0.079635    -2.686258
C      3.598547    -0.589505     2.052579
H      4.312968    -1.231026     1.531292
H      3.963434     0.439907     2.002035
H      3.589872    -0.888156     3.104942
O     -0.575924    -1.439928    -0.302013
H     -0.378849    -2.307791    -0.672829
H      0.311156    -0.991756    -0.208361
C     -7.351564     1.456914     0.670929
O     -6.447129     2.068633     1.064827
O     -8.256013     0.845205     0.276938
