          29
    
N      1.166610     0.172149     0.079319
C      2.081934    -0.705405    -0.753045
H      1.852397    -1.727008    -0.450950
C      1.405653    -0.011344     1.566519
H      1.638878    -1.065900     1.707726
H      2.286790     0.574413     1.823524
C      1.146970     1.638002    -0.308854
H      0.457931     2.118315     0.382063
H      2.146561     2.024991    -0.125351
H      1.781920    -0.587202    -1.792643
C      0.697355     1.888046    -1.740294
H     -0.281594     1.444999    -1.935977
H      0.610785     2.967882    -1.880516
C      0.211912     0.378801     2.426639
H     -0.024134     1.441834     2.365625
H     -0.677686    -0.196182     2.162111
H      0.460994     0.154395     3.466170
H      1.409325     1.513669    -2.476126
O     -1.390494    -1.182057    -0.585885
H     -1.306012    -2.135716    -0.445463
H      0.222482    -0.201363    -0.113699
C     -2.650941    -0.789318    -0.098750
O     -2.883743     0.428168    -0.223892
O     -3.362713    -1.694076     0.386437
C      3.575193    -0.485034    -0.604494
H      3.874133    -0.426501     0.444969
H      4.058883    -1.364931    -1.040584
O      3.985080     0.696769    -1.308788
H      4.938077     0.793362    -1.195501
