          29
    
N      1.546433     0.064763     0.311641
C      2.374371    -0.526805    -0.762031
H      2.645555    -1.532086    -0.426167
C      2.285702     0.136088     1.591692
H      2.894481    -0.769149     1.661972
H      2.982484     0.987680     1.590566
C      0.920424     1.363147    -0.025921
H      0.354252     1.678514     0.852130
H      1.689634     2.128909    -0.198034
H      1.753498    -0.653434    -1.652027
C     -0.035103     1.309221    -1.216239
H     -0.807911     0.550260    -1.068272
H     -0.530110     2.278483    -1.321961
C      1.391344     0.221738     2.828810
H      0.793961     1.135611     2.851825
H      0.713159    -0.633261     2.889041
H      2.018210     0.218445     3.724975
H      0.478264     1.098577    -2.156229
C      3.673923     0.166795    -1.168892
H      4.245253     0.485021    -0.291792
H      4.281180    -0.559010    -1.721364
O      3.399467     1.302098    -2.014906
H      4.243167     1.694088    -2.269223
O     -0.408643    -1.941196     0.464492
H     -0.567238    -2.142101     1.393812
H      0.264068    -1.201095     0.466283
C     -6.428083     0.664371    -2.447974
O     -5.694065     1.176133    -3.187363
O     -7.162230     0.152702    -1.708609
