          29
    
N      1.507818     0.185738     0.348922
C      2.184112    -0.488004    -0.815470
H      2.299042    -1.531973    -0.521155
C      2.351367     0.099113     1.594152
H      2.740975    -0.918906     1.621891
H      3.194594     0.781168     1.480570
C      1.034564     1.592996     0.089871
H      0.520232     1.906392     0.996727
H      1.914640     2.222964    -0.037146
H      1.492349    -0.459950    -1.655639
C      0.087202     1.725781    -1.095176
H     -0.771781     1.058505    -0.997647
H     -0.285050     2.752892    -1.117429
C      1.594174     0.398758     2.882619
H      1.285490     1.442468     2.955896
H      0.713182    -0.237344     2.988673
H      2.261463     0.193385     3.723090
H      0.577365     1.530889    -2.049257
C      3.546891     0.028472    -1.241941
H      4.221931     0.134100    -0.389054
H      3.970430    -0.727979    -1.911049
O      3.425048     1.280120    -1.937100
H      4.310702     1.561251    -2.195639
O     -0.544220    -1.393780     0.702552
H     -1.115817    -1.059592     1.403771
H      0.608851    -0.441654     0.526373
C     -1.887828    -2.300332    -0.771307
O     -1.082422    -2.679343    -1.536403
O     -2.930391    -2.088129    -0.273856
