          29
    
N      1.645146    -0.299445    -0.116155
C      2.825677    -0.823100     0.626254
H      2.847031    -1.907408     0.530402
C      0.388912    -0.906650     0.402267
H      0.500666    -1.989681     0.384783
H      0.207577    -0.570705     1.423666
C      1.655994     1.204604    -0.105187
H      1.616554     1.530027     0.936017
H      2.631733     1.481272    -0.503992
H      3.730185    -0.399268     0.192918
C      0.547503     1.863421    -0.937112
H      0.977604     2.738905    -1.433920
H      0.224671     1.192599    -1.736529
H      2.753460    -0.546809     1.678441
H     -0.444545    -0.626066    -0.236772
C     -0.675575     2.341298    -0.153474
H     -1.070921     1.528802     0.463842
C     -1.779596     2.858252    -1.069671
H     -2.616051     3.248216    -0.483012
H     -1.404348     3.659166    -1.713885
H     -2.158721     2.051854    -1.703556
O     -0.212976     3.391709     0.732696
H     -0.942524     3.635096     1.315212
O      1.965743    -1.085911    -2.577858
H      2.758376    -1.632982    -2.629949
H      1.769915    -0.633779    -1.168138
C      0.726191    -1.704756    -4.246829
O     -0.224449    -1.051281    -4.026135
O      1.441755    -2.468891    -4.780736
