          29
    
N      1.129051    -0.118545     0.002300
C      2.127412    -1.183780    -0.330595
H      1.809779    -2.115569     0.131939
C      0.961715     0.008528     1.484336
H      0.739803    -0.976671     1.887828
H      1.887037     0.389583     1.912422
C      1.485323     1.176664    -0.695337
H      2.441535     1.502303    -0.286550
H      1.639072     0.902002    -1.737320
H      2.168877    -1.299250    -1.411226
C      0.418483     2.273372    -0.593187
H      0.385637     2.790053    -1.557329
H     -0.571726     1.831619    -0.455181
H      3.100686    -0.886480     0.055117
H      0.138068     0.682655     1.699661
C      0.653677     3.331750     0.484608
H      0.805644     2.854631     1.457669
C     -0.509502     4.312621     0.583241
H     -1.420460     3.793546     0.893910
H     -0.296166     5.091103     1.320902
H     -0.694298     4.791263    -0.383083
O      1.877830     4.019165     0.125184
H      2.103257     4.626201     0.840536
O     -1.369312    -1.174467    -1.113637
H     -1.246719    -1.719593    -1.903531
H      0.223690    -0.436034    -0.380760
C     -2.362201    -1.782859    -0.321624
O     -2.603974    -1.175673     0.738690
O     -2.864727    -2.831912    -0.776339
