          29
    
N      1.734368    -0.311725    -0.136543
C      2.914281    -0.791507     0.593847
H      2.989730    -1.876386     0.494141
C      0.522424    -0.965244     0.372904
H      0.644165    -2.048356     0.306379
H      0.323274    -0.700597     1.423274
C      1.660627     1.163520    -0.071062
H      1.516605     1.487318     0.972189
H      2.640543     1.533067    -0.380793
H      3.815513    -0.339472     0.174565
C      0.575251     1.782232    -0.972089
H      0.996578     2.644192    -1.500223
H      0.290310     1.061834    -1.743536
H      2.865742    -0.543934     1.665755
H     -0.343195    -0.683756    -0.227017
C     -0.686537     2.262970    -0.256910
H     -1.058691     1.477884     0.410114
C     -1.791405     2.661456    -1.229812
H     -2.659208     3.053046    -0.691351
H     -1.437212     3.430629    -1.923024
H     -2.118513     1.794967    -1.811390
O     -0.296513     3.396827     0.561450
H     -1.058281     3.660465     1.091798
O      2.131539    -1.099604    -2.766099
H      2.491195    -1.992873    -2.720746
H      1.983751    -0.825709    -1.812336
C     -4.985830     1.662497     3.946261
O     -4.474591     2.398392     3.208311
O     -5.496865     0.926313     4.684038
