          25
    
O     -2.424909     0.752790    -1.066362
N     -5.286582    -0.451886     0.920691
C     -3.069363     0.157661     0.071789
C     -4.562885     0.121970    -0.219777
H     -2.685657    -0.856204     0.231841
H     -2.871758     0.748804     0.971770
H     -4.922172     1.138040    -0.387809
H     -4.739407    -0.451998    -1.137557
H     -1.474049     0.758088    -0.906542
H     -5.044694     0.665639     2.433112
H     -4.878040    -1.317395     1.256918
C     -6.704778    -0.560114     0.868582
O     -7.218203    -1.415238     1.645794
O     -7.326386     0.223550     0.103627
O     -4.359635     4.935093     3.561119
N     -4.916464     1.279638     3.274223
C     -4.496815     3.604038     4.072882
C     -4.757677     2.709444     2.870079
H     -3.580245     3.296407     4.587356
H     -5.330630     3.548956     4.779822
H     -5.672420     3.004400     2.358456
H     -3.925864     2.756171     2.168872
H     -4.187399     5.526778     4.302961
H     -5.725945     1.148358     3.882244
H     -4.096687     0.937626     3.778380
