          25
    
O      1.582777     3.532952    -1.162334
N     -0.564726     1.320211     0.954310
C      1.280798     2.738457     0.001188
C     -0.116789     2.150356    -0.171452
H      2.017126     1.934166     0.109340
H      1.314703     3.362972     0.901621
H     -0.829506     2.968783    -0.314347
H     -0.138868     1.542384    -1.081007
H      2.463465     3.909624    -1.052749
H     -0.526686     1.857456     1.817117
H      0.061542     0.521721     1.078108
C     -4.634783     0.214076     0.263670
O     -4.625291     0.764149    -0.758412
O     -4.645617    -0.336360     1.285559
O      3.207668    -3.327118    -1.350700
N      1.279411    -1.431725     1.232383
C      2.678995    -3.094725    -0.031426
C      1.878228    -1.796403    -0.059010
H      2.032603    -3.928171     0.267150
H      3.497528    -3.015074     0.693194
H      2.530401    -0.979325    -0.381543
H      1.078290    -1.884014    -0.800018
H      3.712095    -4.148674    -1.334201
H      2.005807    -1.345010     1.939183
H      0.662461    -2.174948     1.551314
