          25
    
O     -2.255480     0.118293    -1.189860
N     -5.230881    -0.229219     0.983491
C     -2.943931    -0.217230     0.023110
C     -4.413762     0.103188    -0.214310
H     -2.815399    -1.280677     0.250221
H     -2.550204     0.368666     0.859120
H     -4.544587     1.163551    -0.421127
H     -4.792653    -0.470512    -1.060105
H     -1.318457    -0.072405    -1.065894
H     -4.933256     0.380583     1.821378
H     -5.081975    -1.198490     1.265473
C     -6.766106    -0.049227     0.837023
O     -7.396047    -0.764841     1.623873
O     -7.113258     0.781187    -0.003776
O     -5.241987     4.963459     3.949613
N     -4.487416     1.396011     3.154665
C     -4.656155     3.672689     4.194639
C     -5.027337     2.760428     3.031289
H     -3.566366     3.760137     4.270372
H     -5.036618     3.256999     5.134585
H     -6.115563     2.693599     2.954647
H     -4.658571     3.193449     2.097738
H     -5.020237     5.542189     4.688106
H     -4.819896     0.963841     4.013997
H     -3.472516     1.424954     3.224201
