          25
    
O     -3.003621     1.809666    -0.948356
N     -5.299952    -0.536175     0.812441
C     -3.419992     0.976731     0.149198
C     -4.749806     0.333151    -0.230806
H     -2.667774     0.204549     0.343441
H     -3.540567     1.580265     1.055858
H     -5.477781     1.117832    -0.455517
H     -4.618334    -0.260939    -1.138996
H     -2.155019     2.207248    -0.721717
H     -5.448762    -0.021946     1.677032
H     -4.670734    -1.320510     1.018641
C     -7.256779    -1.473556     0.358587
O     -7.415912    -1.160522    -0.764820
O     -7.487052    -1.977807     1.398022
O     -1.396925    -4.915765    -1.258164
N     -3.428521    -3.079112     1.287485
C     -1.936517    -4.686500     0.057219
C     -2.806475    -3.434652     0.004147
H     -2.536942    -5.547310     0.373241
H     -1.123115    -4.547973     0.778685
H     -2.199045    -2.589216    -0.332020
H     -3.598498    -3.579418    -0.736383
H     -0.842497    -5.703976    -1.225440
H     -2.710605    -2.937322     1.994067
H     -4.004115    -3.849135     1.619929
