          33
    
N      1.919689    -0.187600    -0.225658
C      3.070712    -0.993704    -0.653467
H      2.975237    -2.006967    -0.257511
C      1.832285    -0.169659     1.240578
H      1.785943    -1.195765     1.610372
H      2.704389     0.326045     1.695996
C      2.007793     1.169168    -0.800862
H      2.888790     1.692935    -0.392610
H      2.178623     1.047504    -1.874750
H      3.098347    -1.046754    -1.743704
C      0.754910     2.022529    -0.588142
H     -0.121503     1.446026    -0.896937
H      0.629293     2.266309     0.470942
H      4.024197    -0.571143    -0.299850
H      0.929746     0.349587     1.562743
C      0.845884     3.330776    -1.379917
H      0.874861     3.107376    -2.462667
H      1.790472     3.826213    -1.134429
N     -0.232668     4.284607    -1.081934
C      0.069659     5.595282    -1.660413
H      0.146347     5.562012    -2.761727
H     -0.718464     6.304656    -1.397346
H      1.016947     5.967910    -1.263887
C     -1.536088     3.813071    -1.554902
H     -2.300306     4.555371    -1.314105
H     -1.547183     3.648904    -2.647337
H     -1.807903     2.876965    -1.065951
O     -0.308919    -1.516519    -1.213820
H     -0.113067    -2.455046    -1.112797
H      0.495428    -1.039331    -0.852296
C     -7.058584     0.840638    -0.834507
O     -6.322078     1.579222    -0.325171
O     -7.795084     0.102087    -1.344004
