          33
    
N      1.252823    -0.000851    -0.006369
C      2.186452    -1.153844    -0.211739
H      1.720386    -2.050389     0.191697
C      0.930074     0.172948     1.444248
H      0.546276    -0.770733     1.824976
H      1.840447     0.450589     1.972655
C      1.796954     1.252540    -0.649645
H      2.725943     1.491554    -0.129549
H      2.037397     0.975560    -1.676802
H      2.365636    -1.271684    -1.278012
C      0.825979     2.429814    -0.627591
H     -0.149951     2.104803    -0.996174
H      0.690149     2.800643     0.391040
H      3.120349    -0.948326     0.307925
H      0.176735     0.947022     1.553991
C      1.371935     3.570207    -1.495958
H      1.426247     3.238750    -2.548837
H      2.395042     3.795637    -1.180752
N      0.598096     4.813278    -1.382358
C      1.325072     5.923874    -2.001531
H      1.482427     5.772487    -3.083939
H      0.764134     6.851581    -1.867304
H      2.302096     6.039501    -1.526922
C     -0.737966     4.692630    -1.971162
H     -1.271236     5.639145    -1.859401
H     -0.696732     4.444807    -3.046665
H     -1.315355     3.919201    -1.463609
O     -1.113562    -0.883203    -1.479365
H     -0.925002    -1.560419    -2.144195
H      0.374503    -0.246323    -0.494002
C     -2.361851    -1.183903    -0.900484
O     -2.708465    -0.387832    -0.007524
O     -2.950241    -2.189187    -1.350513
