          33
    
N      1.496472    -0.126402    -0.070289
C      2.590445    -1.126390    -0.213378
H      2.198201    -2.111782     0.032350
C      0.921921    -0.166581     1.302428
H      0.633246    -1.192500     1.524443
H      1.666032     0.171849     2.024642
C      1.983193     1.235924    -0.467731
H      2.783738     1.514421     0.222797
H      2.420484     1.119647    -1.460969
H      2.942115    -1.118979    -1.243946
C      0.891642     2.303152    -0.502061
H      0.055756     1.942666    -1.106238
H      0.513035     2.503906     0.503345
H      3.412061    -0.877349     0.458946
H      0.042889     0.471084     1.349156
C      1.451430     3.608304    -1.079639
H      1.769376     3.445390    -2.125747
H      2.346705     3.887317    -0.515752
N      0.515447     4.738041    -0.994955
C      1.206692     5.995974    -1.285924
H      1.617092     6.023441    -2.310725
H      0.511497     6.831580    -1.177240
H      2.031203     6.139071    -0.583762
C     -0.633373     4.575998    -1.889387
H     -1.294661     5.439621    -1.790867
H     -0.327167     4.495074    -2.947422
H     -1.203432     3.683525    -1.628884
O     -0.360284    -0.897755    -1.714376
H      0.007923    -1.583746    -2.283774
H      0.695858    -0.441064    -0.782132
C     -2.292525    -1.668845    -1.065562
O     -2.605384    -0.792713    -0.349337
O     -2.337286    -2.680049    -1.662003
